&input
     fildyn='QE.{name}.dynmat',
     asr='no',  
     filout='{name}.vecs',
/

