&input
     fildyn='QE.{name}.dynmat',
     asr='simple',  
     filout='{name}.vecs',
/

