&input
 fildyn='QE.{name}.dynmat',
 zasr='no'
 flfrc='{name}.fc'
/
