&input
 fildyn='QE.dynmat',
 zasr='simple'
 flfrc='{name}.fc'
/
